treewidth/data/BalancedTree_3_5.gr
p tw 364 363
1 2
1 113
1 224
2 299
2 310
2 321
113 332
113 343
113 354
224 3
224 14
224 25
299 36
299 47
299 58
310 69
310 80
310 91
321 102
321 114
321 125
332 136
332 147
332 158
343 169
343 180
343 191
354 202
354 213
354 225
3 236
3 247
3 258
14 269
14 280
14 291
25 296
25 297
25 298
36 300
36 301
36 302
47 303
47 304
47 305
58 306
58 307
58 308
69 309
69 311
69 312
80 313
80 314
80 315
91 316
91 317
91 318
102 319
102 320
102 322
114 323
114 324
114 325
125 326
125 327
125 328
136 329
136 330
136 331
147 333
147 334
147 335
158 336
158 337
158 338
169 339
169 340
169 341
180 342
180 344
180 345
191 346
191 347
191 348
202 349
202 350
202 351
213 352
213 353
213 355
225 356
225 357
225 358
236 359
236 360
236 361
247 362
247 363
247 364
258 4
258 5
258 6
269 7
269 8
269 9
280 10
280 11
280 12
291 13
291 15
291 16
296 17
296 18
296 19
297 20
297 21
297 22
298 23
298 24
298 26
300 27
300 28
300 29
301 30
301 31
301 32
302 33
302 34
302 35
303 37
303 38
303 39
304 40
304 41
304 42
305 43
305 44
305 45
306 46
306 48
306 49
307 50
307 51
307 52
308 53
308 54
308 55
309 56
309 57
309 59
311 60
311 61
311 62
312 63
312 64
312 65
313 66
313 67
313 68
314 70
314 71
314 72
315 73
315 74
315 75
316 76
316 77
316 78
317 79
317 81
317 82
318 83
318 84
318 85
319 86
319 87
319 88
320 89
320 90
320 92
322 93
322 94
322 95
323 96
323 97
323 98
324 99
324 100
324 101
325 103
325 104
325 105
326 106
326 107
326 108
327 109
327 110
327 111
328 112
328 115
328 116
329 117
329 118
329 119
330 120
330 121
330 122
331 123
331 124
331 126
333 127
333 128
333 129
334 130
334 131
334 132
335 133
335 134
335 135
336 137
336 138
336 139
337 140
337 141
337 142
338 143
338 144
338 145
339 146
339 148
339 149
340 150
340 151
340 152
341 153
341 154
341 155
342 156
342 157
342 159
344 160
344 161
344 162
345 163
345 164
345 165
346 166
346 167
346 168
347 170
347 171
347 172
348 173
348 174
348 175
349 176
349 177
349 178
350 179
350 181
350 182
351 183
351 184
351 185
352 186
352 187
352 188
353 189
353 190
353 192
355 193
355 194
355 195
356 196
356 197
356 198
357 199
357 200
357 201
358 203
358 204
358 205
359 206
359 207
359 208
360 209
360 210
360 211
361 212
361 214
361 215
362 216
362 217
362 218
363 219
363 220
363 221
364 222
364 223
364 226
4 227
4 228
4 229
5 230
5 231
5 232
6 233
6 234
6 235
7 237
7 238
7 239
8 240
8 241
8 242
9 243
9 244
9 245
10 246
10 248
10 249
11 250
11 251
11 252
12 253
12 254
12 255
13 256
13 257
13 259
15 260
15 261
15 262
16 263
16 264
16 265
17 266
17 267
17 268
18 270
18 271
18 272
19 273
19 274
19 275
20 276
20 277
20 278
21 279
21 281
21 282
22 283
22 284
22 285
23 286
23 287
23 288
24 289
24 290
24 292
26 293
26 294
26 295
