treewidth/data/BalancedTree_3_5.td
c width = 1, time = 0.004239
s td 364 2 364
b 1 1
b 2 1 2
b 3 2 299
b 4 299 36
b 5 36 300
b 6 300 27
b 7 300 28
b 8 300 29
b 9 36 301
b 10 301 30
b 11 301 31
b 12 301 32
b 13 36 302
b 14 302 33
b 15 302 34
b 16 302 35
b 17 299 47
b 18 47 303
b 19 303 37
b 20 303 38
b 21 303 39
b 22 47 304
b 23 304 40
b 24 304 41
b 25 304 42
b 26 47 305
b 27 305 43
b 28 305 44
b 29 305 45
b 30 299 58
b 31 58 306
b 32 306 46
b 33 306 48
b 34 306 49
b 35 58 307
b 36 307 50
b 37 307 51
b 38 307 52
b 39 58 308
b 40 308 53
b 41 308 54
b 42 308 55
b 43 2 310
b 44 310 69
b 45 69 309
b 46 309 56
b 47 309 57
b 48 309 59
b 49 69 311
b 50 311 60
b 51 311 61
b 52 311 62
b 53 69 312
b 54 312 63
b 55 312 64
b 56 312 65
b 57 310 80
b 58 80 313
b 59 313 66
b 60 313 67
b 61 313 68
b 62 80 314
b 63 314 70
b 64 314 71
b 65 314 72
b 66 80 315
b 67 315 73
b 68 315 74
b 69 315 75
b 70 310 91
b 71 91 316
b 72 316 76
b 73 316 77
b 74 316 78
b 75 91 317
b 76 317 79
b 77 317 81
b 78 317 82
b 79 91 318
b 80 318 83
b 81 318 84
b 82 318 85
b 83 2 321
b 84 321 102
b 85 102 319
b 86 319 86
b 87 319 87
b 88 319 88
b 89 102 320
b 90 320 89
b 91 320 90
b 92 320 92
b 93 102 322
b 94 322 93
b 95 322 94
b 96 322 95
b 97 321 114
b 98 114 323
b 99 323 96
b 100 323 97
b 101 323 98
b 102 114 324
b 103 324 99
b 104 324 100
b 105 324 101
b 106 114 325
b 107 325 103
b 108 325 104
b 109 325 105
b 110 321 125
b 111 125 326
b 112 326 106
b 113 326 107
b 114 326 108
b 115 125 327
b 116 327 109
b 117 327 110
b 118 327 111
b 119 125 328
b 120 328 112
b 121 328 115
b 122 328 116
b 123 1 113
b 124 113 332
b 125 332 136
b 126 136 329
b 127 329 117
b 128 329 118
b 129 329 119
b 130 136 330
b 131 330 120
b 132 330 121
b 133 330 122
b 134 136 331
b 135 331 123
b 136 331 124
b 137 331 126
b 138 332 147
b 139 147 333
b 140 333 127
b 141 333 128
b 142 333 129
b 143 147 334
b 144 334 130
b 145 334 131
b 146 334 132
b 147 147 335
b 148 335 133
b 149 335 134
b 150 335 135
b 151 332 158
b 152 158 336
b 153 336 137
b 154 336 138
b 155 336 139
b 156 158 337
b 157 337 140
b 158 337 141
b 159 337 142
b 160 158 338
b 161 338 143
b 162 338 144
b 163 338 145
b 164 113 343
b 165 343 169
b 166 169 339
b 167 339 146
b 168 339 148
b 169 339 149
b 170 169 340
b 171 340 150
b 172 340 151
b 173 340 152
b 174 169 341
b 175 341 153
b 176 341 154
b 177 341 155
b 178 343 180
b 179 180 342
b 180 342 156
b 181 342 157
b 182 342 159
b 183 180 344
b 184 344 160
b 185 344 161
b 186 344 162
b 187 180 345
b 188 345 163
b 189 345 164
b 190 345 165
b 191 343 191
b 192 191 346
b 193 346 166
b 194 346 167
b 195 346 168
b 196 191 347
b 197 347 170
b 198 347 171
b 199 347 172
b 200 191 348
b 201 348 173
b 202 348 174
b 203 348 175
b 204 113 354
b 205 354 202
b 206 202 349
b 207 349 176
b 208 349 177
b 209 349 178
b 210 202 350
b 211 350 179
b 212 350 181
b 213 350 182
b 214 202 351
b 215 351 183
b 216 351 184
b 217 351 185
b 218 354 213
b 219 213 352
b 220 352 186
b 221 352 187
b 222 352 188
b 223 213 353
b 224 353 189
b 225 353 190
b 226 353 192
b 227 213 355
b 228 355 193
b 229 355 194
b 230 355 195
b 231 354 225
b 232 225 356
b 233 356 196
b 234 356 197
b 235 356 198
b 236 225 357
b 237 357 199
b 238 357 200
b 239 357 201
b 240 225 358
b 241 358 203
b 242 358 204
b 243 358 205
b 244 1 224
b 245 224 3
b 246 3 236
b 247 236 359
b 248 359 206
b 249 359 207
b 250 359 208
b 251 236 360
b 252 360 209
b 253 360 210
b 254 360 211
b 255 236 361
b 256 361 212
b 257 361 214
b 258 361 215
b 259 3 247
b 260 247 362
b 261 362 216
b 262 362 217
b 263 362 218
b 264 247 363
b 265 363 219
b 266 363 220
b 267 363 221
b 268 247 364
b 269 364 222
b 270 364 223
b 271 364 226
b 272 3 258
b 273 258 4
b 274 4 227
b 275 4 228
b 276 4 229
b 277 258 5
b 278 5 230
b 279 5 231
b 280 5 232
b 281 258 6
b 282 6 233
b 283 6 234
b 284 6 235
b 285 224 14
b 286 14 269
b 287 269 7
b 288 7 237
b 289 7 238
b 290 7 239
b 291 269 8
b 292 8 240
b 293 8 241
b 294 8 242
b 295 269 9
b 296 9 243
b 297 9 244
b 298 9 245
b 299 14 280
b 300 280 10
b 301 10 246
b 302 10 248
b 303 10 249
b 304 280 11
b 305 11 250
b 306 11 251
b 307 11 252
b 308 280 12
b 309 12 253
b 310 12 254
b 311 12 255
b 312 14 291
b 313 291 13
b 314 13 256
b 315 13 257
b 316 13 259
b 317 291 15
b 318 15 260
b 319 15 261
b 320 15 262
b 321 291 16
b 322 16 263
b 323 16 264
b 324 16 265
b 325 224 25
b 326 25 296
b 327 296 17
b 328 17 266
b 329 17 267
b 330 17 268
b 331 296 18
b 332 18 270
b 333 18 271
b 334 18 272
b 335 296 19
b 336 19 273
b 337 19 274
b 338 19 275
b 339 25 297
b 340 297 20
b 341 20 276
b 342 20 277
b 343 20 278
b 344 297 21
b 345 21 279
b 346 21 281
b 347 21 282
b 348 297 22
b 349 22 283
b 350 22 284
b 351 22 285
b 352 25 298
b 353 298 23
b 354 23 286
b 355 23 287
b 356 23 288
b 357 298 24
b 358 24 289
b 359 24 290
b 360 24 292
b 361 298 26
b 362 26 293
b 363 26 294
b 364 26 295
1 2
2 3
3 4
4 5
5 6
5 7
5 8
4 9
9 10
9 11
9 12
4 13
13 14
13 15
13 16
3 17
17 18
18 19
18 20
18 21
17 22
22 23
22 24
22 25
17 26
26 27
26 28
26 29
3 30
30 31
31 32
31 33
31 34
30 35
35 36
35 37
35 38
30 39
39 40
39 41
39 42
2 43
43 44
44 45
45 46
45 47
45 48
44 49
49 50
49 51
49 52
44 53
53 54
53 55
53 56
43 57
57 58
58 59
58 60
58 61
57 62
62 63
62 64
62 65
57 66
66 67
66 68
66 69
43 70
70 71
71 72
71 73
71 74
70 75
75 76
75 77
75 78
70 79
79 80
79 81
79 82
2 83
83 84
84 85
85 86
85 87
85 88
84 89
89 90
89 91
89 92
84 93
93 94
93 95
93 96
83 97
97 98
98 99
98 100
98 101
97 102
102 103
102 104
102 105
97 106
106 107
106 108
106 109
83 110
110 111
111 112
111 113
111 114
110 115
115 116
115 117
115 118
110 119
119 120
119 121
119 122
1 123
123 124
124 125
125 126
126 127
126 128
126 129
125 130
130 131
130 132
130 133
125 134
134 135
134 136
134 137
124 138
138 139
139 140
139 141
139 142
138 143
143 144
143 145
143 146
138 147
147 148
147 149
147 150
124 151
151 152
152 153
152 154
152 155
151 156
156 157
156 158
156 159
151 160
160 161
160 162
160 163
123 164
164 165
165 166
166 167
166 168
166 169
165 170
170 171
170 172
170 173
165 174
174 175
174 176
174 177
164 178
178 179
179 180
179 181
179 182
178 183
183 184
183 185
183 186
178 187
187 188
187 189
187 190
164 191
191 192
192 193
192 194
192 195
191 196
196 197
196 198
196 199
191 200
200 201
200 202
200 203
123 204
204 205
205 206
206 207
206 208
206 209
205 210
210 211
210 212
210 213
205 214
214 215
214 216
214 217
204 218
218 219
219 220
219 221
219 222
218 223
223 224
223 225
223 226
218 227
227 228
227 229
227 230
204 231
231 232
232 233
232 234
232 235
231 236
236 237
236 238
236 239
231 240
240 241
240 242
240 243
1 244
244 245
245 246
246 247
247 248
247 249
247 250
246 251
251 252
251 253
251 254
246 255
255 256
255 257
255 258
245 259
259 260
260 261
260 262
260 263
259 264
264 265
264 266
264 267
259 268
268 269
268 270
268 271
245 272
272 273
273 274
273 275
273 276
272 277
277 278
277 279
277 280
272 281
281 282
281 283
281 284
244 285
285 286
286 287
287 288
287 289
287 290
286 291
291 292
291 293
291 294
286 295
295 296
295 297
295 298
285 299
299 300
300 301
300 302
300 303
299 304
304 305
304 306
304 307
299 308
308 309
308 310
308 311
285 312
312 313
313 314
313 315
313 316
312 317
317 318
317 319
317 320
312 321
321 322
321 323
321 324
244 325
325 326
326 327
327 328
327 329
327 330
326 331
331 332
331 333
331 334
326 335
335 336
335 337
335 338
325 339
339 340
340 341
340 342
340 343
339 344
344 345
344 346
344 347
339 348
348 349
348 350
348 351
325 352
352 353
353 354
353 355
353 356
352 357
357 358
357 359
357 360
352 361
361 362
361 363
361 364
